5
950 892 410  954
851 680 742  553
624 960 921  704
936 647 721  979
599 707 651  404
10
200 454 368  266 177
579 165 764  54 5
653 188 78  273 74
136 464 326  192 13
671 542 375  275 8
423 105 571  9 278
393 397 393  91 170
313 676 715  134 264
661 61 621  182 297
487 88 42  283 31
